param dueDate = 15;
param P:
		1	2	:=
	'A'	3	1		
	'B'	4	2		
	'C'	2	1		
	'D'	5	2		
	'E'	6	1		
	'F'	2	1		
	'G'	4	3		
	'H'	3	2		
	'I'	5	4		
;
param costo:=
	'A'	4
	'B'	1
	'C'	1
	'D'	1
	'E'	3
	'F'	7
	'G'	9
	'H'	5
	'I'	8
;
